unknown
(model
; cardinality of BoundSet is 6
(declare-sort BoundSet 0)
; rep: @uc_BoundSet_0
; rep: @uc_BoundSet_1
; rep: @uc_BoundSet_2
; rep: @uc_BoundSet_3
; rep: @uc_BoundSet_4
; rep: @uc_BoundSet_5
; cardinality of UnboundSet is 1
(declare-sort UnboundSet 0)
(declare-fun groundTerm_7 () UnboundSet)
(define-fun SingsJoyousSongs ((BOUND_VARIABLE_543 BoundSet)) Bool true)
(define-fun IsFromBook ((BOUND_VARIABLE_550 BoundSet) (BOUND_VARIABLE_551 BoundSet)) Bool true)
(define-fun IsAtChurch ((BOUND_VARIABLE_550 BoundSet) (BOUND_VARIABLE_551 BoundSet)) Bool true)
(define-fun IsToMasses ((BOUND_VARIABLE_550 BoundSet) (BOUND_VARIABLE_551 BoundSet)) Bool true)
(define-fun IsFilledWithSong ((BOUND_VARIABLE_550 BoundSet) (BOUND_VARIABLE_551 BoundSet)) Bool false)
)
unsat
(error "Cannot get model unless immediately preceded by SAT/NOT_ENTAILED or UNKNOWN response.")
